c Random generated cnf formula, satisfiable: false
p cnf 10 50
7 5 -3 0
-8 -3 -9 0
7 -10 -1 0
-7 5 6 0
2 9 -5 0
6 -3 1 0
5 -2 -9 0
-5 2 -10 0
-4 8 -9 0
-4 7 9 0
5 4 -7 0
5 8 -9 0
1 -2 5 0
-8 -5 -7 0
-5 1 -7 0
-2 -8 -6 0
-2 -9 -5 0
-7 6 4 0
-9 -7 1 0
-9 -8 -7 0
8 -3 2 0
5 7 2 0
8 10 3 0
-7 6 -1 0
8 -4 7 0
4 -7 -10 0
4 7 -6 0
-7 -5 -10 0
-1 9 2 0
-6 -4 -10 0
9 -2 8 0
5 -7 3 0
2 -5 10 0
10 -9 -7 0
6 -4 7 0
10 -3 6 0
7 -10 6 0
3 9 7 0
-4 10 6 0
-10 1 8 0
-8 -1 -6 0
-6 9 10 0
-9 -3 8 0
4 5 -2 0
-2 -7 -5 0
-2 7 5 0
-1 -4 5 0
10 7 4 0
9 -6 -8 0
-5 7 10 0
